
Gurobi 13.0.1 (linux64) logging started Tue Apr  7 16:52:41 2026

Set parameter LogFile to value "logs_sparse/75B_3F_robust_gamma_0d05_theta_0d05199999999999999_2026-04-07_16h52m27s.log"
Set parameter MIPGap to value 0.005
Set parameter OptimalityTol to value 0.005
Gurobi Optimizer version 13.0.1 build v13.0.1rc0 (linux64 - "Linux Mint 22")

CPU model: 12th Gen Intel(R) Core(TM) i7-12700, instruction set [SSE2|AVX|AVX2]
Thread count: 20 physical cores, 20 logical processors, using up to 20 threads

Non-default parameters:
TimeLimit  3600
SoftMemLimit  12
MIPGap  0.005
OptimalityTol  0.005

Optimize a model with 45596 rows, 867096 columns and 2644377 nonzeros (Max)
Model fingerprint: 0xb229f78d
Model has 832586 linear objective coefficients
Variable types: 12096 continuous, 855000 integer (855000 binary)
Coefficient statistics:
  Matrix range     [3e-05, 1e+05]
  Objective range  [1e+00, 3e+03]
  Bounds range     [1e+00, 1e+05]
  RHS range        [1e-02, 1e+05]

Presolve removed 23361 rows and 626527 columns
Presolve time: 1.54s
Presolved: 22235 rows, 240569 columns, 754016 nonzeros
Variable types: 5870 continuous, 234699 integer (234699 binary)
Found heuristic solution: objective -4.04919e+08
Deterministic concurrent LP optimizer: primal simplex, dual simplex, and barrier
Showing barrier log only...

Root barrier log...

Ordering time: 0.48s

Barrier statistics:
 AA' NZ     : 3.860e+05
 Factor NZ  : 3.362e+06 (roughly 130 MB of memory)
 Factor Ops : 9.985e+08 (less than 1 second per iteration)
 Threads    : 18

                  Objective                Residual
Iter       Primal          Dual         Primal    Dual     Compl     Time
   0  -8.99171134e+12  1.19813329e+09  2.61e+08 1.02e+03  1.09e+08     3s
   1  -1.09492814e+12  4.10098426e+09  3.18e+07 3.76e+02  1.35e+07     3s
   2  -5.43681240e+09  3.28867390e+09  1.71e+05 6.57e-11  7.84e+04     3s
   3  -4.88255853e+08  1.35345972e+09  1.55e+04 1.30e-10  9.00e+03     3s
   4   1.36848151e+08  7.60379561e+08  3.72e+03 5.89e-11  2.26e+03     3s
   5   2.94087995e+08  5.07509453e+08  7.86e+02 3.46e-11  6.08e+02     3s
   6   3.04526682e+08  3.85219788e+08  5.70e+02 3.50e-11  2.78e+02     3s
   7   3.22336851e+08  3.71861999e+08  1.64e+02 4.45e-11  1.33e+02     3s
   8   3.28035678e+08  3.58415554e+08  5.71e+01 5.75e-11  7.29e+01     3s
   9   3.29589242e+08  3.43684678e+08  3.15e+01 7.18e-11  3.46e+01     3s
  10   3.30308168e+08  3.36450915e+08  1.80e+01 6.49e-10  1.55e+01     3s
  11   3.30983481e+08  3.34193631e+08  3.98e+00 4.57e-10  7.11e+00     3s
  12   3.31133486e+08  3.32799008e+08  1.88e+00 2.69e-10  3.55e+00     3s
  13   3.31272715e+08  3.31867974e+08  2.67e-01 2.39e-10  1.21e+00     3s
  14   3.31327152e+08  3.31631356e+08  5.36e-02 2.55e-10  6.18e-01     4s
  15   3.31362732e+08  3.31492368e+08  3.58e-03 2.53e-10  2.63e-01     4s
  16   3.31369605e+08  3.31428328e+08  1.14e-03 2.79e-10  1.19e-01     4s
  17   3.31372128e+08  3.31405279e+08  5.31e-04 3.08e-10  6.73e-02     4s
  18   3.31373106e+08  3.31391611e+08  3.47e-04 2.21e-10  3.76e-02     4s
  19   3.31374485e+08  3.31384251e+08  1.48e-04 2.79e-10  1.98e-02     4s
  20   3.31375154e+08  3.31379120e+08  4.80e-05 2.51e-10  8.06e-03     4s
  21   3.31375349e+08  3.31377981e+08  2.57e-05 2.97e-10  5.35e-03     4s
  22   3.31375426e+08  3.31377210e+08  1.84e-05 2.98e-10  3.62e-03     4s
  23   3.31375470e+08  3.31376842e+08  1.47e-05 3.96e-10  2.79e-03     4s
  24   3.31375496e+08  3.31376397e+08  1.27e-05 3.05e-10  1.83e-03     4s
  25   3.31375566e+08  3.31376134e+08  6.97e-06 3.60e-10  1.15e-03     4s
  26   3.31375629e+08  3.31375944e+08  2.08e-06 3.43e-10  6.41e-04     4s
  27   3.31375643e+08  3.31375742e+08  1.18e-06 2.32e-10  2.01e-04     4s
  28   3.31375661e+08  3.31375692e+08  2.05e-07 2.65e-10  6.34e-05     4s
  29   3.31375664e+08  3.31375674e+08  5.02e-08 2.63e-10  2.02e-05     4s
  30   3.31375665e+08  3.31375668e+08  2.52e-08 2.35e-10  6.72e-06     4s
  31   3.31375665e+08  3.31375666e+08  1.27e-08 2.30e-10  1.77e-06     4s
  32   3.31375666e+08  3.31375666e+08  3.48e-09 2.10e-10  2.70e-07     4s
  33   3.31375666e+08  3.31375666e+08  5.40e-09 2.58e-10  5.13e-08     5s
  34   3.31375666e+08  3.31375666e+08  2.88e-07 2.25e-10  3.62e-09     5s

Barrier solved model in 34 iterations and 4.57 seconds (6.55 work units)
Optimal objective 3.31375666e+08


Root simplex log...

Iteration    Objective       Primal Inf.    Dual Inf.      Time
   10228    3.3137567e+08   0.000000e+00   0.000000e+00      5s
Crossover time: 0.48 seconds (0.49 work units)
Concurrent spin time: 0.38s (can be avoided by choosing Method=3)

Solved with barrier

Root relaxation: objective 3.313757e+08, 10228 iterations, 3.49 seconds (3.64 work units)

    Nodes    |    Current Node    |     Objective Bounds      |     Work
 Expl Unexpl |  Obj  Depth IntInf | Incumbent    BestBd   Gap | It/Node Time

     0     0 3.3138e+08    0 6335 -4.049e+08 3.3138e+08   182%     -    6s
H    0     0                    2.079824e+08 3.3138e+08  59.3%     -    7s
H    0     0                    2.556214e+08 3.3138e+08  29.6%     -    7s
H    0     0                    2.559445e+08 3.3138e+08  29.5%     -    7s
H    0     0                    2.572970e+08 3.3138e+08  28.8%     -    8s
H    0     0                    2.572976e+08 3.3138e+08  28.8%     -    8s
H    0     0                    2.572977e+08 3.3138e+08  28.8%     -    8s
H    0     0                    3.030333e+08 3.3138e+08  9.35%     -    9s
H    0     0                    3.032351e+08 3.3138e+08  9.28%     -   10s
H    0     0                    3.032834e+08 3.3138e+08  9.26%     -   12s
     0     0 3.3138e+08    0 5352 3.0328e+08 3.3138e+08  9.26%     -  251s
H    0     0                    3.035363e+08 3.3138e+08  9.17%     -  257s
H    0     0                    3.048357e+08 3.3138e+08  8.71%     -  279s
H    0     0                    3.048359e+08 3.3138e+08  8.71%     -  371s
     0     0 3.3138e+08    0 5350 3.0484e+08 3.3138e+08  8.71%     -  568s
     0     0 3.3137e+08    0 6162 3.0484e+08 3.3137e+08  8.71%     -  822s
H    0     0                    3.049088e+08 3.3137e+08  8.68%     -  825s
H    0     0                    3.110642e+08 3.3137e+08  6.53%     -  829s
H    0     0                    3.134725e+08 3.3137e+08  5.71%     -  833s
H    0     0                    3.168731e+08 3.3137e+08  4.58%     -  863s
H    0     0                    3.188414e+08 3.3137e+08  3.93%     -  931s
H    0     0                    3.190576e+08 3.3137e+08  3.86%     -  995s
H    0     0                    3.193404e+08 3.3137e+08  3.77%     - 1007s
H    0     0                    3.193489e+08 3.3137e+08  3.77%     - 1061s
H    0     0                    3.194067e+08 3.3137e+08  3.75%     - 1061s
H    0     0                    3.196874e+08 3.3137e+08  3.66%     - 1072s
H    0     0                    3.200825e+08 3.3137e+08  3.53%     - 1072s
H    0     0                    3.201461e+08 3.3137e+08  3.51%     - 1083s
H    0     0                    3.208465e+08 3.3137e+08  3.28%     - 1083s
H    0     0                    3.210452e+08 3.3137e+08  3.22%     - 1083s
     0     0 3.3137e+08    0 6143 3.2105e+08 3.3137e+08  3.22%     - 1175s
     0     0 3.3137e+08    0 6645 3.2105e+08 3.3137e+08  3.22%     - 1554s
     0     0 3.3137e+08    0 6414 3.2105e+08 3.3137e+08  3.22%     - 1621s
     0     0 3.3137e+08    0 6598 3.2105e+08 3.3137e+08  3.22%     - 1940s
     0     0 3.3137e+08    0 6598 3.2105e+08 3.3137e+08  3.22%     - 1942s
     0     0 3.3137e+08    0 6551 3.2105e+08 3.3137e+08  3.22%     - 1942s
H    0     0                    3.211119e+08 3.3137e+08  3.20%     - 2091s
H    0     0                    3.211695e+08 3.3137e+08  3.18%     - 2113s
H    0     0                    3.211799e+08 3.3137e+08  3.17%     - 2184s
     0     2 3.3137e+08    0 6551 3.2118e+08 3.3137e+08  3.17%     - 2319s
     1     3 3.3137e+08    1 4787 3.2118e+08 3.3137e+08  3.17% 84926 2395s
     2     4 3.3137e+08    1 7104 3.2118e+08 3.3137e+08  3.17% 126792 2541s
     3     5 3.3137e+08    2 5093 3.2118e+08 3.3137e+08  3.17% 180490 2850s
     4     7 3.3137e+08    3 4989 3.2118e+08 3.3137e+08  3.17% 142517 3084s
H    6    13                    3.211915e+08 3.3137e+08  3.17% 138578 3358s
H    8    13                    3.212278e+08 3.3137e+08  3.16% 114882 3358s
H    9    13                    3.213483e+08 3.3137e+08  3.12% 104337 3358s

Cutting planes:
  MIR: 4
  Flow cover: 49
  RLT: 3325
  Relax-and-lift: 115

Explored 12 nodes (2535378 simplex iterations) in 3600.08 seconds (6363.99 work units)
Thread count was 20 (of 20 available processors)

Solution count 10: 3.21348e+08 3.21348e+08 3.21228e+08 ... 3.20083e+08

Time limit reached
Best objective 3.213483274127e+08, best bound 3.313740414607e+08, gap 3.1199%
